branch-and-cut/resultados/I080/i080-101.sol
2608
15
2 43
3 4
51 76
51 37
43 75
5 75
1 59
75 76
6 7
4 37
59 8
1 51
6 70
37 52
70 52
