branch-and-cut/resultados/I080/i080-101.log

Gurobi 10.0.3 (linux64) logging started Fri Dec 15 18:17:25 2023

Set parameter LogFile to value "resultados/I080/i080-101.log"
Set parameter Cutoff to value 3633
Gurobi Optimizer version 10.0.3 build v10.0.3rc0 (linux64)

CPU model: Intel(R) Core(TM) i7-8650U CPU @ 1.90GHz, instruction set [SSE2|AVX|AVX2]
Thread count: 4 physical cores, 8 logical processors, using up to 8 threads

Optimize a model with 8 rows, 120 columns and 26 nonzeros
Model fingerprint: 0xf185e8e6
Variable types: 0 continuous, 120 integer (120 binary)
Coefficient statistics:
  Matrix range     [1e+00, 1e+00]
  Objective range  [9e+01, 3e+02]
  Bounds range     [1e+00, 1e+00]
  RHS range        [1e+00, 1e+00]
Presolve removed 3 rows and 2 columns
Presolve time: 0.00s
Presolved: 5 rows, 118 columns, 21 nonzeros
Variable types: 0 continuous, 118 integer (118 binary)

Root relaxation: objective 1.395000e+03, 5 iterations, 0.00 seconds (0.00 work units)

    Nodes    |    Current Node    |     Objective Bounds      |     Work
 Expl Unexpl |  Obj  Depth IntInf | Incumbent    BestBd   Gap | It/Node Time

     0     0 1395.00000    0    -          - 1395.00000      -     -    0s
     0     0 1704.00000    0    4          - 1704.00000      -     -    0s
     0     0 1728.00000    0    4          - 1728.00000      -     -    0s
     0     0 1915.00000    0    -          - 1915.00000      -     -    0s
     0     0 2106.50000    0    6          - 2106.50000      -     -    0s
     0     0 2143.33333    0   10          - 2143.33333      -     -    0s
     0     2 2158.62500    0   17          - 2158.62500      -     -    0s
*  103    83              14    2827.0000000 2400.00000  15.1%  16.4    0s
*  142   108               7    2623.0000000 2416.00000  7.89%  16.4    0s
*  283    14               6    2608.0000000 2576.61947  1.20%  14.5    1s

Cutting planes:
  User: 151
  MIR: 2
  Lazy constraints: 112

Explored 335 nodes (4295 simplex iterations) in 1.13 seconds (0.07 work units)
Thread count was 8 (of 8 available processors)

Solution count 3: 2608 2623 2827 

Optimal solution found (tolerance 1.00e-04)
Best objective 2.608000000000e+03, best bound 2.608000000000e+03, gap 0.0000%

User-callback calls 952, time in user-callback 0.96 sec
